p cnf 30 80
a 29 15 0
e 1 2 3 4 5 6 7 8 9 10 11 12 13 14 16 17 18 19 20 21 22 23 24 25 26 27 28 30 0
2 3 -4 0
-2 -3 -4 0
2 -3 4 0
-2 3 4 0
1 -4 -5 0
-1 4 -5 0
1 4 5 0
-1 -4 5 0
-6 5 0
-6 -5 0
8 1 0
8 -7 0
-1 7 -8 0
-9 -1 0
-9 -8 0
1 8 9 0
10 6 0
10 -9 0
-6 9 -10 0
8 -12 0
-8 -12 0
-13 11 0
-13 -12 0
-11 12 13 0
10 -13 -14 0
-10 13 -14 0
10 13 14 0
-10 -13 14 0
-15 -12 0
-15 5 0
12 -5 15 0
16 -15 0
16 -5 0
15 5 -16 0
-19 -1 0
-19 -18 0
1 18 19 0
1 19 -20 0
-1 -19 -20 0
1 -19 20 0
-1 19 20 0
21 -2 0
21 20 0
2 -20 -21 0
17 -21 -22 0
-17 21 -22 0
17 21 22 0
-17 -21 22 0
-23 8 0
-23 -22 0
-8 22 23 0
-24 -16 0
-24 23 0
16 -23 24 0
25 -22 -26 0
-25 22 -26 0
25 22 26 0
-25 -22 26 0
-3 2 -27 0
3 -2 -27 0
-3 -2 27 0
3 2 27 0
-28 -26 0
-28 27 0
26 -27 28 0
29 24 0
29 28 0
-24 -28 -29 0
14 -29 -30 0
-14 29 -30 0
14 29 30 0
-14 -29 30 0
1 30 -10 6 -13 4 2 0
-24 29 -22 16 -30 -26 25 0
-14 15 -4 29 -27 -8 20 0
-23 18 -5 22 9 0
-13 -2 -5 -17 -20 27 0
24 13 29 0
-27 5 -17 24 -15 -11 0
30 0
